Solver command line: ['C:\\Program Files\\IBM\\ILOG\\CPLEX_Studio2211\\cplex\\bin\\x64_win64\\cplex.exe']


Welcome to IBM(R) ILOG(R) CPLEX(R) Interactive Optimizer 22.1.1.0
  with Simplex, Mixed Integer & Barrier Optimizers
5725-A06 5725-A29 5724-Y48 5724-Y49 5724-Y54 5724-Y55 5655-Y21
Copyright IBM Corp. 1988, 2022.  All Rights Reserved.

Type 'help' for a list of available commands.
Type 'help' followed by a command name for more
information on commands.

CPLEX> Logfile 'cplex.log' closed.
Logfile 'C:\Users\wangy\Documents\GitHub\re_optimization\result_site_specific\tmpw1frlt3t.cplex.log' open.
CPLEX> Problem 'C:\Users\wangy\Documents\GitHub\re_optimization\result_site_specific\tmpo8g0xn9d.pyomo.lp' read.
Read time = 0.39 sec. (9.13 ticks)
CPLEX> Problem name         : C:\Users\wangy\Documents\GitHub\re_optimization\result_site_specific\tmpo8g0xn9d.pyomo.lp
Objective sense      : Minimize
Variables            :   65769  [Nneg: 35068,  Free: 8792,  Binary: 9,
                                 Other: 21900]
Objective nonzeros   :      17
Linear constraints   :   87665  [Less: 46741,  Greater: 5,  Equal: 40919]
  Nonzeros           :  225090
  RHS nonzeros       :    3533

Variables            : Min LB: 0.000000         Max UB: 1.000000       
Objective nonzeros   : Min   : 1.000000         Max   : 1.000000       
Linear constraints   :
  Nonzeros           : Min   : 0.001759613      Max   : 100000.0       
  RHS nonzeros       : Min   : 0.1160000        Max   : 100000.0       
CPLEX> Version identifier: 22.1.1.0 | 2022-11-27 | 9160aff4d
Tried aggregator 3 times.
MIP Presolve eliminated 53593 rows and 33151 columns.
Aggregator did 10471 substitutions.
Reduced MIP has 23601 rows, 22147 columns, and 70666 nonzeros.
Reduced MIP has 5 binaries, 0 generals, 0 SOSs, and 0 indicators.
Presolve time = 0.28 sec. (226.41 ticks)
Found incumbent of value 329094.820805 after 0.41 sec. (322.49 ticks)
Probing time = 0.00 sec. (1.31 ticks)
Tried aggregator 1 time.
Detecting symmetries...
Reduced MIP has 23601 rows, 22147 columns, and 70666 nonzeros.
Reduced MIP has 5 binaries, 0 generals, 0 SOSs, and 0 indicators.
Presolve time = 0.06 sec. (45.48 ticks)
Probing time = 0.02 sec. (1.21 ticks)
MIP emphasis: balance optimality and feasibility.
MIP search method: dynamic search.
Parallel mode: deterministic, using up to 16 threads.
Root relaxation solution time = 1.64 sec. (719.13 ticks)

        Nodes                                         Cuts/
   Node  Left     Objective  IInf  Best Integer    Best Bound    ItCnt     Gap

*     0+    0                       329094.8208   -15334.7634           104.66%
      0     0     8505.1420     1   329094.8208     8505.1420       51   97.42%
*     0+    0                        10109.7109     8505.1420            15.87%
*     0+    0                         9496.4608     8505.1420            10.44%
      0     0        cutoff           9496.4608                    617    0.00%
Elapsed time = 2.55 sec. (1566.15 ticks, tree = 0.01 MB, solutions = 3)

Root node processing (before b&c):
  Real time             =    2.56 sec. (1569.31 ticks)
Parallel b&c, 16 threads:
  Real time             =    0.00 sec. (0.00 ticks)
  Sync time (average)   =    0.00 sec.
  Wait time (average)   =    0.00 sec.
                          ------------
Total (root+branch&cut) =    2.56 sec. (1569.31 ticks)

Solution pool: 3 solutions saved.

MIP - Integer optimal solution:  Objective =  9.4964607529e+03
Solution time =    2.56 sec.  Iterations = 617  Nodes = 0
Deterministic time = 1569.50 ticks  (612.37 ticks/sec)

CPLEX> Incumbent solution written to file 'C:\Users\wangy\Documents\GitHub\re_optimization\result_site_specific\tmph9bgny2v.cplex.sol'.
CPLEX> 
